NAME : Euclidean Random Tour : n = 100, sample = 20 
COMMENT : Coordinates are generated uniformly sampled from [0, 100000] x [0, 100000] 
DIMENSION : 100 
EDGE_WEIGHT_TYPE : EUC_2D 
TOUR_SECTION 
1
30
32
13
95
48
52
42
26
81
15
6
31
46
29
25
18
80
50
23
8
24
74
54
75
11
63
93
73
68
61
99
43
65
51
82
87
78
56
100
7
40
2
57
4
20
5
79
83
60
33
85
69
49
41
3
94
39
76
98
17
64
72
77
71
89
88
22
67
45
44
19
27
36
92
16
62
12
96
59
37
53
38
91
21
9
55
47
90
34
84
28
10
86
70
35
66
58
97
14
-1
